1 of 1 MIP starts provided solutions.
MIP start 'm1' defined initial solution with objective 52914.5640.
Tried aggregator 1 time.
MIP Presolve eliminated 0 rows and 1 columns.
Reduced MIP has 2167 rows, 1478 columns, and 17013 nonzeros.
Reduced MIP has 689 binaries, 0 generals, 0 SOSs, and 0 indicators.
Presolve time = 0.01 sec. (5.38 ticks)
Probing time = 0.01 sec. (3.64 ticks)
Tried aggregator 1 time.
Reduced MIP has 2167 rows, 1478 columns, and 17013 nonzeros.
Reduced MIP has 689 binaries, 0 generals, 0 SOSs, and 0 indicators.
Presolve time = 0.01 sec. (6.51 ticks)
Probing time = 0.00 sec. (3.68 ticks)
Clique table members: 1616.
MIP emphasis: balance optimality and feasibility.
MIP search method: dynamic search.
Parallel mode: none, using 1 thread.
Root relaxation solution time = 0.02 sec. (14.57 ticks)

        Nodes                                         Cuts/
   Node  Left     Objective  IInf  Best Integer    Best Bound    ItCnt     Gap

*     0+    0                        52914.5640   165046.3622     1230  211.91%
      0     0    55023.0855   147    52914.5640    55023.0855     1230    3.98%
      0     0    54194.7014   169    52914.5640     Cuts: 218     1430    2.42%
      0     0    53848.3216   139    52914.5640     Cuts: 177     1608    1.76%
      0     0    53747.8310   175    52914.5640     Cuts: 104     1750    1.57%
      0     0    53656.4019   180    52914.5640      Cuts: 77     1847    1.40%
      0     0    53633.6670   175    52914.5640      Cuts: 53     1928    1.36%
      0     0    53622.3179   201    52914.5640      Cuts: 50     1985    1.34%
      0     0    53620.7844   186    52914.5640      Cuts: 25     2013    1.33%
      0     0    53618.7033   143    52914.5640      Cuts: 11     2027    1.33%
      0     0    53615.8558   205    52914.5640      Cuts: 12     2044    1.33%
      0     0    53615.6867   140    52914.5640       Cuts: 8     2048    1.33%
      0     0    53615.0651   206    52914.5640      Cuts: 11     2059    1.32%
      0     2    53615.0651   206    52914.5640    53614.7018     2059    1.32%
Elapsed time = 0.73 sec. (417.23 ticks, tree = 0.00 MB, solutions = 1)
    114    92    53377.5623   106    52914.5640    53590.4959     3484    1.28%
    288   225    53401.3654   125    52914.5640    53573.0868     5491    1.24%
    446   342    53464.3104   123    52914.5640    53543.0584     7226    1.19%
    590   448    53188.5670   103    52914.5640    53523.3445     9309    1.15%
    760   570    52957.3393    45    52914.5640    53497.7670    11062    1.10%
    912   683    53302.0642   100    52914.5640    53484.1814    12934    1.08%
   1008   756    53180.9288    34    52914.5640    53159.3911    17810    0.46%
   1049   225    52939.7477    25    52914.5640    52942.0891    18503    0.05%

Implied bound cuts applied:  8
Flow cuts applied:  61
Mixed integer rounding cuts applied:  155
Lift and project cuts applied:  74
Gomory fractional cuts applied:  11

Root node processing (before b&c):
  Real time             =    0.73 sec. (417.13 ticks)
Sequential b&c:
  Real time             =    6.35 sec. (3858.23 ticks)
                          ------------
Total (root+branch&cut) =    7.08 sec. (4275.35 ticks)
